GLPSOL--GLPK LP/MIP Solver 5.0
Parameter(s) specified in the command line:
 --lp ../modeles/4_239.lp --log 4_239.log
Reading problem data from '../modeles/4_239.lp'...
973 rows, 1920 columns, 6712 non-zeros
956 integer variables, all of which are binary
2903 lines were read
GLPK Integer Optimizer 5.0
973 rows, 1920 columns, 6712 non-zeros
956 integer variables, all of which are binary
Preprocessing...
952 constraint coefficient(s) were reduced
973 rows, 1916 columns, 6708 non-zeros
956 integer variables, all of which are binary
Scaling...
 A: min|aij| =  7.003e-05  max|aij| =  4.000e+00  ratio =  5.712e+04
GM: min|aij| =  6.468e-02  max|aij| =  1.546e+01  ratio =  2.390e+02
EQ: min|aij| =  4.184e-03  max|aij| =  1.000e+00  ratio =  2.390e+02
2N: min|aij| =  3.906e-03  max|aij| =  1.744e+00  ratio =  4.464e+02
Constructing initial basis...
Size of triangular part is 973
Solving LP relaxation...
GLPK Simplex Optimizer 5.0
973 rows, 1916 columns, 6708 non-zeros
      0: obj =   8.000000000e+00 inf =   1.950e+01 (9)
     59: obj =   4.998686975e-01 inf =   0.000e+00 (0)
*   216: obj =  -1.999738494e+00 inf =   4.217e-15 (0)
OPTIMAL LP SOLUTION FOUND
Integer optimization begins...
Long-step dual simplex will be used
+   216: mip =     not found yet >=              -inf        (1; 0)
+   221: >>>>>  -1.999738494e+00 >=  -1.999738494e+00 < 0.1% (4; 0)
+   221: mip =  -1.999738494e+00 >=     tree is empty   0.0% (0; 7)
INTEGER OPTIMAL SOLUTION FOUND
Time used:   0.0 secs
Memory used: 2.8 Mb (2961828 bytes)
